r = [
0,41,18,34,25,5,39,30,4,2,21,15,30,24,31,27,38,16,35,36,30,16,35,36,12,32,0
];
p = [
0,7,8,7,4,13,30,20,26,18,3,27,7,29,1,8,22,11,22,1,27,22,23,21,28,20,0
];
e = [
0,20,20,13,15,8,16,12,14,7,17,17,15,17,19,17,11,7,4,7,11,14,11,5,19,9,0
];
d = [
0,423,388,418,372,369,415,413,375,349,375,365,396,398,406,402,392,399,379,417,375,382,382,407,385,412,424
];
d_bar = [
0,424,389,419,373,370,418,415,378,351,376,368,397,401,407,403,394,400,381,418,378,384,384,409,388,414,424
];
w = [
0,20,20,13,15,8,5.333333333,6,4.666666667,3.5,17,5.666666667,15,5.666666667,19,17,5.5,7,2,7,3.666666667,7,5.5,2.5,6.333333333,4.5,0
];
